words_easy_train/words_471_SAT.qaiger
aag 91 16 0 1 75
2
14
16
18
22
30
28
10
32
20
26
24
4
8
12
6
183
34 33 31
36 34 29
38 36 27
40 38 25
42 40 23
44 41 22
46 45 43
48 46 12
50 42 21
52 43 20
54 53 51
56 54 14
58 55 15
60 59 57
62 60 48
64 32 2
66 32 30
68 67 35
70 69 5
72 68 4
74 73 71
76 74 3
78 77 65
80 19 17
82 18 16
84 83 81
86 85 51
88 84 50
90 89 87
92 91 57
94 93 79
96 94 63
98 35 28
100 99 37
102 100 6
104 101 7
106 105 103
108 71 64
110 109 73
112 111 106
114 110 107
116 115 113
118 117 96
120 74 32
122 47 13
124 123 49
126 39 24
128 127 41
130 128 10
132 37 26
134 133 39
136 134 8
138 113 103
140 135 9
142 141 137
144 142 139
146 145 137
148 147 130
150 149 125
152 151 121
154 152 118
156 129 11
158 157 147
160 159 131
162 161 124
164 90 54
166 165 48
168 167 61
170 156 137
172 143 138
174 172 171
176 175 145
178 177 169
180 178 163
182 180 154
i0 1 x1[0]
i1 1 x1[6]
i2 1 x1[7]
i3 2 y2[0]
i4 2 y2[2]
i5 2 y2[6]
i6 2 y2[5]
i7 1 x1[4]
i8 2 y2[7]
i9 2 y2[1]
i10 2 y2[4]
i11 2 y2[3]
i12 1 x1[1]
i13 1 x1[3]
i14 1 x1[5]
i15 1 x1[2]
o0 bool[0]
c
simplified
  !=
    subtract
      1 x1
      reverse
        2 y2
    114
