words_easy_train/words_471_SAT.qaiger.qdimacs
p cnf 91 226
a 1 2 3 4 5 6 7 8 0
e 9 10 11 12 13 14 15 16 17 18 19 20 21 22 23 24 25 26 27 28 29 30 31 32 33 34 35 36 37 38 39 40 41 42 43 44 45 46 47 48 49 50 51 52 53 54 55 56 57 58 59 60 61 62 63 64 65 66 67 68 69 70 71 72 73 74 75 76 77 78 79 80 81 82 83 84 85 86 87 88 89 90 91 0
16 15 17 0
-16 -17 0
-15 -17 0
-17 14 18 0
17 -18 0
-14 -18 0
-18 13 19 0
18 -19 0
-13 -19 0
-19 12 20 0
19 -20 0
-12 -20 0
-20 11 21 0
20 -21 0
-11 -21 0
20 -11 22 0
-20 -22 0
11 -22 0
22 21 23 0
-22 -23 0
-21 -23 0
-23 -6 24 0
23 -24 0
6 -24 0
-21 10 25 0
21 -25 0
-10 -25 0
21 -10 26 0
-21 -26 0
10 -26 0
26 25 27 0
-26 -27 0
-25 -27 0
-27 -7 28 0
27 -28 0
7 -28 0
27 7 29 0
-27 -29 0
-7 -29 0
29 28 30 0
-29 -30 0
-28 -30 0
-30 -24 31 0
30 -31 0
24 -31 0
-16 -1 32 0
16 -32 0
1 -32 0
-16 -15 33 0
16 -33 0
15 -33 0
33 17 34 0
-33 -34 0
-17 -34 0
34 2 35 0
-34 -35 0
-2 -35 0
-34 -2 36 0
34 -36 0
2 -36 0
36 35 37 0
-36 -37 0
-35 -37 0
-37 1 38 0
37 -38 0
-1 -38 0
38 32 39 0
-38 -39 0
-32 -39 0
9 8 40 0
-9 -40 0
-8 -40 0
-9 -8 41 0
9 -41 0
8 -41 0
41 40 42 0
-41 -42 0
-40 -42 0
42 25 43 0
-42 -43 0
-25 -43 0
-42 -25 44 0
42 -44 0
25 -44 0
44 43 45 0
-44 -45 0
-43 -45 0
45 28 46 0
-45 -46 0
-28 -46 0
46 39 47 0
-46 -47 0
-39 -47 0
-47 31 48 0
47 -48 0
-31 -48 0
17 -14 49 0
-17 -49 0
14 -49 0
49 18 50 0
-49 -50 0
-18 -50 0
-50 -3 51 0
50 -51 0
3 -51 0
50 3 52 0
-50 -52 0
-3 -52 0
52 51 53 0
-52 -53 0
-51 -53 0
35 -32 54 0
-35 -54 0
32 -54 0
54 36 55 0
-54 -55 0
-36 -55 0
55 -53 56 0
-55 -56 0
53 -56 0
-55 53 57 0
55 -57 0
-53 -57 0
57 56 58 0
-57 -58 0
-56 -58 0
58 -48 59 0
-58 -59 0
48 -59 0
-37 -16 60 0
37 -60 0
16 -60 0
23 6 61 0
-23 -61 0
-6 -61 0
61 24 62 0
-61 -62 0
-24 -62 0
19 -12 63 0
-19 -63 0
12 -63 0
63 20 64 0
-63 -64 0
-20 -64 0
-64 -5 65 0
64 -65 0
5 -65 0
18 -13 66 0
-18 -66 0
13 -66 0
66 19 67 0
-66 -67 0
-19 -67 0
-67 -4 68 0
67 -68 0
4 -68 0
56 51 69 0
-56 -69 0
-51 -69 0
67 4 70 0
-67 -70 0
-4 -70 0
70 68 71 0
-70 -71 0
-68 -71 0
-71 69 72 0
71 -72 0
-69 -72 0
72 68 73 0
-72 -73 0
-68 -73 0
73 -65 74 0
-73 -74 0
65 -74 0
74 62 75 0
-74 -75 0
-62 -75 0
75 60 76 0
-75 -76 0
-60 -76 0
-76 -59 77 0
76 -77 0
59 -77 0
64 5 78 0
-64 -78 0
-5 -78 0
78 73 79 0
-78 -79 0
-73 -79 0
79 65 80 0
-79 -80 0
-65 -80 0
80 -62 81 0
-80 -81 0
62 -81 0
-45 -27 82 0
45 -82 0
27 -82 0
82 -24 83 0
-82 -83 0
24 -83 0
83 30 84 0
-83 -84 0
-30 -84 0
-78 68 85 0
78 -85 0
-68 -85 0
71 -69 86 0
-71 -86 0
69 -86 0
-86 85 87 0
86 -87 0
-85 -87 0
87 72 88 0
-87 -88 0
-72 -88 0
88 84 89 0
-88 -89 0
-84 -89 0
-89 81 90 0
89 -90 0
-81 -90 0
-90 -77 91 0
90 -91 0
77 -91 0
-91 0
